GLPSOL--GLPK LP/MIP Solver 5.0
Parameter(s) specified in the command line:
 --lp ../modeles/10_324.lp --log 10_324.log
Reading problem data from '../modeles/10_324.lp'...
3281 rows, 6500 columns, 22710 non-zeros
3240 integer variables, all of which are binary
9797 lines were read
GLPK Integer Optimizer 5.0
3281 rows, 6500 columns, 22710 non-zeros
3240 integer variables, all of which are binary
Preprocessing...
3220 constraint coefficient(s) were reduced
3281 rows, 6490 columns, 22700 non-zeros
3240 integer variables, all of which are binary
Scaling...
 A: min|aij| =  1.524e-04  max|aij| =  4.000e+00  ratio =  2.624e+04
GM: min|aij| =  7.857e-02  max|aij| =  1.273e+01  ratio =  1.620e+02
EQ: min|aij| =  6.173e-03  max|aij| =  1.000e+00  ratio =  1.620e+02
2N: min|aij| =  4.877e-03  max|aij| =  1.763e+00  ratio =  3.615e+02
Constructing initial basis...
Size of triangular part is 3281
Solving LP relaxation...
GLPK Simplex Optimizer 5.0
3281 rows, 6490 columns, 22700 non-zeros
      0: obj =   2.000000000e+01 inf =   4.950e+01 (21)
    209: obj =   3.175694987e-01 inf =   0.000e+00 (0)
*   670: obj =  -3.161704188e+00 inf =   9.961e-15 (0)
OPTIMAL LP SOLUTION FOUND
Integer optimization begins...
Long-step dual simplex will be used
+   670: mip =     not found yet >=              -inf        (1; 0)
+   721: >>>>>  -3.161704188e+00 >=  -3.161704188e+00 < 0.1% (51; 0)
+   721: mip =  -3.161704188e+00 >=     tree is empty   0.0% (0; 101)
INTEGER OPTIMAL SOLUTION FOUND
Time used:   0.4 secs
Memory used: 9.6 Mb (10034130 bytes)
